 vasp.6.3.0 20Jan22 (build May 12 2022 16:34:25) complex

 executed on GNU/Linux-IFC-IntelM date 2022.11.23  10:16:18

 INCAR:
   SYSTEM = BN/gr
   ISTART = 1
   NCORE = 56
   KPAR = 2
   ENCUT = 400
   PREC = Accurate
   EDIFF = 1E-8
   ISMEAR = 0
   SIGMA = 0.04
   NELMIN = 2
   NELM = 100
   NBANDS = 2700
   LCHARG = .F.
   LWAVE = .F.
   IVDW = 11
   ALGO = Normal
   LOPTICS = .T.
   CSHIFT = 0.100
   NEDOS = 2500

 POTCAR:    PAW_PBE N 08Apr2002
 POTCAR:    PAW_PBE B 06Sep2000
 POTCAR:    PAW_PBE C 08Apr2002
 POTCAR:    PAW_PBE N 08Apr2002
   VRHFIN =N: s2p3

   TITEL  = PAW_PBE N 08Apr2002
   POMASS =   14.001; ZVAL   =    5.000    mass and valenz
   ENMAX  =  400.000; ENMIN  =  300.000 eV

 POTCAR:    PAW_PBE B 06Sep2000
   VRHFIN =B: s2p1

   TITEL  = PAW_PBE B 06Sep2000
   POMASS =   10.811; ZVAL   =    3.000    mass and valenz
   ENMAX  =  318.614; ENMIN  =  238.960 eV

 POTCAR:    PAW_PBE C 08Apr2002
   VRHFIN =C: s2p2

   TITEL  = PAW_PBE C 08Apr2002
   POMASS =   12.011; ZVAL   =    4.000    mass and valenz
   ENMAX  =  400.000; ENMIN  =  300.000 eV

  PAW_PBE N 08Apr2002                   :
  PAW_PBE B 06Sep2000                   :
  PAW_PBE C 08Apr2002                   :

 POSCAR: B163 C326 N163
  positions in direct lattice
  velocities in cartesian coordinates
 exchange correlation table for  LEXCH =        8
   RHO(1)=    0.500       N(1)  =     2000
   RHO(2)=  100.500       N(2)  =     4000

 ion  position               nearest neighbor table
   1  0.053  0.916  0.500- 164 1.42 165 1.42 278 1.42
   2  0.072  0.849  0.500- 165 1.42 288 1.42 167 1.42
   3  0.139  0.935  0.500- 168 1.42 166 1.42 165 1.42
   4  0.090  0.781  0.500- 297 1.42 171 1.42 167 1.42
   5  0.157  0.867  0.500- 167 1.42 172 1.42 168 1.42
   6  0.225  0.953  0.500- 169 1.42 168 1.42 173 1.42
   7  0.041  0.628  0.500- 304 1.42 175 1.42 170 1.42
   8  0.108  0.714  0.500- 170 1.42 176 1.42 171 1.42
   9  0.176  0.800  0.500- 172 1.42 177 1.42 171 1.42
  10  0.243  0.885  0.500- 173 1.42 178 1.42 172 1.42
  11  0.311  0.971  0.500- 174 1.42 173 1.42 179 1.42
  12  0.059  0.560  0.500- 175 1.42 180 1.42 310 1.42
  13  0.127  0.646  0.500- 181 1.42 176 1.42 175 1.42
  14  0.194  0.732  0.500- 176 1.42 177 1.42 182 1.42
  15  0.262  0.818  0.500- 183 1.42 177 1.42 178 1.42
  16  0.329  0.904  0.500- 178 1.42 179 1.42 184 1.42
  17  0.078  0.493  0.500- 315 1.42 180 1.42 186 1.42
  18  0.145  0.579  0.500- 187 1.42 180 1.42 181 1.42
  19  0.213  0.665  0.500- 188 1.42 181 1.42 182 1.42
  20  0.280  0.750  0.500- 182 1.42 189 1.42 183 1.42
  21  0.348  0.836  0.500- 184 1.42 183 1.42 190 1.42
  22  0.415  0.922  0.500- 185 1.42 191 1.42 184 1.42
  23  0.096  0.425  0.500- 194 1.42 320 1.42 186 1.42
  24  0.164  0.511  0.500- 186 1.42 195 1.42 187 1.42
  25  0.231  0.597  0.500- 187 1.42 188 1.42 196 1.42
  26  0.299  0.683  0.500- 189 1.42 197 1.42 188 1.42
  27  0.366  0.769  0.500- 190 1.42 198 1.42 189 1.42
  28  0.434  0.855  0.500- 190 1.42 191 1.42 199 1.42
  29  0.501  0.941  0.500- 200 1.42 191 1.42 192 1.42
  30  0.047  0.272  0.500- 323 1.42 193 1.42 202 1.42
  31  0.115  0.358  0.500- 193 1.42 194 1.42 203 1.42
  32  0.182  0.444  0.500- 195 1.42 204 1.42 194 1.42
  33  0.250  0.530  0.500- 205 1.42 196 1.42 195 1.42
  34  0.317  0.616  0.500- 196 1.42 197 1.42 206 1.42
  35  0.384  0.701  0.500- 207 1.42 197 1.42 198 1.42
  36  0.452  0.787  0.500- 198 1.42 199 1.42 208 1.42
  37  0.519  0.873  0.500- 199 1.42 209 1.42 200 1.42
  38  0.587  0.959  0.500- 201 1.42 200 1.42 210 1.42
  39  0.065  0.205  0.500- 202 1.42 325 1.42 212 1.42
  40  0.133  0.290  0.500- 213 1.42 203 1.42 202 1.42
  41  0.200  0.376  0.500- 203 1.42 204 1.42 214 1.42
  42  0.268  0.462  0.500- 215 1.42 204 1.42 205 1.42
  43  0.335  0.548  0.500- 206 1.42 216 1.42 205 1.42
  44  0.403  0.634  0.500- 217 1.42 206 1.42 207 1.42
  45  0.470  0.720  0.500- 208 1.42 207 1.42 218 1.42
  46  0.538  0.806  0.500- 209 1.42 219 1.42 208 1.42
  47  0.605  0.892  0.500- 210 1.42 220 1.42 209 1.42
  48  0.673  0.977  0.500- 210 1.42 211 1.42 221 1.42
  49  0.084  0.137  0.500- 326 1.42 212 1.42 223 1.42
  50  0.151  0.223  0.500- 212 1.42 224 1.42 213 1.42
  51  0.219  0.309  0.500- 225 1.42 214 1.42 213 1.42
  52  0.286  0.395  0.500- 226 1.42 214 1.42 215 1.42
  53  0.354  0.481  0.500- 216 1.42 215 1.42 227 1.42
  54  0.421  0.566  0.500- 217 1.42 228 1.42 216 1.42
  55  0.489  0.652  0.500- 229 1.42 218 1.42 217 1.42
  56  0.556  0.738  0.500- 218 1.42 219 1.42 230 1.42
  57  0.624  0.824  0.500- 231 1.42 219 1.42 220 1.42
  58  0.691  0.910  0.500- 221 1.42 220 1.42 232 1.42
  59  0.035  0.984  0.500- 268 1.42 164 1.42 222 1.42
  60  0.102  0.070  0.500- 234 1.42 223 1.42 222 1.42
[...]
 638  0.996  0.759  0.333- 475 1.42 327 1.42 328 1.42
 639  0.014  0.845  0.333- 329 1.42 328 1.42 476 1.42
 640  0.033  0.930  0.333- 477 1.42 330 1.42 329 1.42
 641  0.916  0.053  0.333- 478 1.42 487 1.42 486 1.42
 642  0.935  0.139  0.333- 488 1.42 479 1.42 487 1.42
 643  0.953  0.225  0.333- 488 1.42 480 1.42 489 1.42
 644  0.971  0.311  0.333- 489 1.42 331 1.42 481 1.42
 645  0.990  0.397  0.333- 482 1.42 331 1.42 332 1.42
 646  0.008  0.483  0.333- 333 1.42 332 1.42 483 1.42
 647  0.027  0.569  0.333- 334 1.42 484 1.42 333 1.42
 648  0.045  0.654  0.333- 335 1.42 485 1.42 334 1.42
 649  0.984  0.035  0.333- 486 1.42 339 1.42 340 1.42
 650  0.002  0.121  0.333- 341 1.42 340 1.42 487 1.42
 651  0.020  0.207  0.333- 342 1.42 341 1.42 488 1.42
 652  0.039  0.292  0.333- 489 1.42 343 1.42 342 1.42

  LATTYP: Found a hexagonal cell.
 ALAT       =    31.4965470000
 C/A-ratio  =     0.6667397540

  Lattice vectors:

 A1 = (  31.4965470000,   0.0000000000,   0.0000000000)
 A2 = ( -15.7482730000,  27.2768100000,   0.0000000000)
 A3 = (   0.0000000000,   0.0000000000,  21.0000000000)

Analysis of symmetry for initial positions (statically):
 Subroutine PRICEL returns:
 Original cell was already a primitive cell.

 Routine SETGRP: Setting up the symmetry group for a
 hexagonal supercell.

 Subroutine GETGRP returns: Found  3 space group operations
 (whereof  3 operations were pure point group operations)
 out of a pool of 24 trial point group operations.

The static configuration has the point symmetry C_3 .

Analysis of symmetry for dynamics (positions and initial velocities):
 Subroutine PRICEL returns:
 Original cell was already a primitive cell.

 Routine SETGRP: Setting up the symmetry group for a
 hexagonal supercell.

 Subroutine GETGRP returns: Found  3 space group operations
 (whereof  3 operations were pure point group operations)
 out of a pool of 24 trial point group operations.

The dynamic configuration has the point symmetry C_3 .

 Subroutine INISYM returns: Found  3 space group operations
 (whereof  3 operations are pure point group operations),
 and found     1 'primitive' translations

                                     Primitive cell

  volume of cell :   18041.6319

  direct lattice vectors                    reciprocal lattice vectors
    31.496547000  0.000000000  0.000000000     0.031749512  0.018330589  0.000000000
   -15.748273000 27.276810000  0.000000000     0.000000000  0.036661178  0.000000000
     0.000000000  0.000000000 21.000000000     0.000000000  0.000000000  0.047619048

  length of vectors
    31.496547000 31.496546894 21.000000000     0.036661178  0.036661178  0.047619048

  position of ions in fractional coordinates (direct lattice)
     0.053174878  0.916162516  0.500028431
     0.071568186  0.848678484  0.500003446
     0.139070608  0.934558610  0.500002266
     0.089978134  0.781182741  0.500038557
     0.157453019  0.867062087  0.500019021
     0.224949795  0.952968644  0.500034906
     0.040888546  0.627799904  0.500024191
     0.108382197  0.713701636  0.500036923
     0.175877705  0.799602131  0.500017801
     0.243358244  0.885484164  0.500045927
     0.310832331  0.971374133  0.499994625
     0.059311549  0.560341114  0.500012999
     0.126798491  0.646221047  0.500039964
     0.194264652  0.732109176  0.500003161
     0.261765406  0.817989446  0.500002346
     0.329238477  0.903882220  0.500039014
     0.077699453  0.492844193  0.500013979
     0.145196474  0.578724076  0.499996600
     0.212679431  0.664619995  0.500041276
     0.280155804  0.750499873  0.500031171
     0.347646971  0.836407059  0.500033413
     0.415144741  0.922300547  0.500013979
     0.096117780  0.425356257  0.500039014
     0.163592941  0.511239911  0.500033413
     0.231080161  0.597139863  0.500039449
     0.298578077  0.683038822  0.500006375
     0.366059702  0.768919839  0.500039449
     0.433527602  0.854803526  0.499996600
     0.501029565  0.940688451  0.500012999
     0.047031356  0.271981151  0.500034906
     0.114515836  0.357874080  0.500045927
     0.182010554  0.443775959  0.500002346
     0.249500127  0.529654930  0.500031171
     0.316961178  0.615539255  0.500006375
     0.384460745  0.701421923  0.500006375
     0.451940564  0.787320569  0.500041276
     0.519421556  0.873201509  0.500039964
     0.586911359  0.959111454  0.500024191
     0.065441390  0.204511999  0.500002266
     0.132937913  0.290391932  0.500019021
     0.200397869  0.376275574  0.500017801
     0.267890824  0.462155475  0.500003161
     0.335380005  0.548059436  0.500041276
     0.402860137  0.633940298  0.500039449
     0.470345070  0.719844196  0.500031171
     0.537844525  0.805735348  0.500003161
     0.605319438  0.891617803  0.500036923
     0.672791416  0.977498111  0.499994300
     0.083837484  0.137011362  0.500028431
     0.151321516  0.222889702  0.500003446
     0.218817259  0.308794393  0.500038557
     0.286298364  0.394680562  0.500036923
     0.353778953  0.480578444  0.500039964
     0.421275924  0.566472398  0.499996600
     0.488760089  0.652353029  0.500033413
     0.556224041  0.738234594  0.500002346
     0.623724426  0.824122295  0.500017801
     0.691205607  0.910021866  0.500038557
     0.034753110  0.983626049  0.500006723
     0.102251512  0.069530428  0.500035062
[...]
     0.995905233  0.758689622  0.333301729
     0.014321409  0.844581422  0.333321604
     0.032718533  0.930473304  0.333324246
     0.916155229  0.053174834  0.333327177
     0.934561591  0.139064491  0.333335711
     0.952962247  0.224942255  0.333320734
     0.971372877  0.310835674  0.333339305
     0.989765743  0.396723461  0.333315300
     0.008187458  0.482619460  0.333309672
     0.026583619  0.568507645  0.333326549
     0.044992928  0.654405727  0.333326857
     0.983632116  0.034759755  0.333330938
     0.002047373  0.120654825  0.333298937
     0.020452185  0.206543933  0.333327266
     0.038855756  0.292440724  0.333325305

  ion indices of the primitive-cell ions
   primitive index   ion index
                 1           1
                 2           2
                 3           3
                 4           4
                 5           5
                 6           6
                 7           7
                 8           8
                 9           9
                10          10
                11          11
                12          12
                13          13
                14          14
[...]
    4.907074    1.785807    1.785807    1.486160   -0.033557   -0.000000    0.000000
    5.055773    1.664866    1.664866    1.491221   -0.000809   -0.000000   -0.000000
    5.204472    1.454956    1.454956    1.491337    0.017124    0.000000   -0.000000
    5.353172    1.449886    1.449886    1.495950    0.023653   -0.000000    0.000000
    5.501871    1.407891    1.407891    1.497974   -0.002974   -0.000000   -0.000000
    5.650570    1.154343    1.154343    1.501556   -0.021799    0.000000   -0.000000
    5.799269    1.157905    1.157905    1.509817   -0.003687    0.000000   -0.000000
    5.947968    0.576409    0.576409    1.516636    0.030289   -0.000000   -0.000000
    6.096668    0.216068    0.216068    1.520833   -0.001811   -0.000000    0.000000
    6.245367    0.176263    0.176263    1.529136   -0.020534   -0.000000    0.000000
    6.394066    0.208803    0.208803    1.539580   -0.017522   -0.000000    0.000000
    6.542765    0.261978    0.261978    1.551165   -0.011153   -0.000000    0.000000
    6.691464    0.320903    0.320903    1.563680    0.002158   -0.000000    0.000000
    6.840164    0.380501    0.380501    1.577109    0.014798   -0.000000    0.000000
    6.988863    0.439199    0.439199    1.591513    0.015239   -0.000000    0.000000
    7.137562    0.496958    0.496958    1.606994    0.009227   -0.000000    0.000000
    7.286261    0.551750    0.551750    1.623672    0.005229    0.000000   -0.000000
    7.434960    0.603763    0.603763    1.641686   -0.001092    0.000000   -0.000000
    7.583660    0.653966    0.653966    1.661224   -0.006242    0.000000   -0.000000
    7.732359    0.702860    0.702860    1.682509   -0.010502    0.000000   -0.000000
    7.881058    0.750029    0.750029    1.705820   -0.005481    0.000000   -0.000000
    8.029757    0.795610    0.795610    1.731501    0.004263   -0.000000   -0.000000
    8.178457    0.840428    0.840428    1.759902    0.003232   -0.000000    0.000000
    8.327156    0.883406    0.883406    1.791373   -0.000951   -0.000000    0.000000
    8.475855    0.923335    0.923335    1.826538   -0.002450   -0.000000    0.000000
    8.624554    0.960527    0.960527    1.866221   -0.002046   -0.000000    0.000000
    8.773253    0.998168    0.998168    1.911501   -0.000987   -0.000000    0.000000
[...]
   34.944314    0.901073    0.901073    0.939216   -0.000000    0.000000    0.000000
   35.093013    0.902061    0.902061    0.939828   -0.000000    0.000000    0.000000
   35.241713    0.903033    0.903033    0.940430   -0.000000    0.000000    0.000000
   35.390412    0.903989    0.903989    0.941023   -0.000000    0.000000    0.000000
   35.539111    0.904931    0.904931    0.941606   -0.000000    0.000000    0.000000
   35.687810    0.905858    0.905858    0.942180   -0.000000    0.000000    0.000000
   35.836510    0.906770    0.906770    0.942744   -0.000000    0.000000    0.000000
   35.985209    0.907668    0.907668    0.943300   -0.000000    0.000000    0.000000
   36.133908    0.908553    0.908553    0.943848   -0.000000    0.000000    0.000000
   36.282607    0.909424    0.909424    0.944386   -0.000000    0.000000    0.000000
   36.431306    0.910282    0.910282    0.944917   -0.000000    0.000000    0.000000
   36.580006    0.911127    0.911127    0.945440   -0.000000    0.000000    0.000000
   36.728705    0.911959    0.911959    0.945954   -0.000000    0.000000    0.000000
   36.877404    0.912779    0.912779    0.946461   -0.000000    0.000000    0.000000
   37.026103    0.913587    0.913587    0.946961   -0.000000    0.000000    0.000000

  frequency dependent IMAGINARY DIELECTRIC FUNCTION (independent particle, no local field effects) current-current
     E(ev)      X         Y         Z        XY        YZ        ZX
    0.000000  161.241707  161.241709    5.660922    0.093769    0.000000   -0.000000
    0.148699   15.827370   15.827370    0.566325    0.009719    0.000000   -0.000000
    0.297398    8.043553    8.043553    0.283517    0.004803    0.000000   -0.000000
    0.446098    5.412500    5.412500    0.189407    0.003153    0.000000   -0.000000
    0.594797    4.097999    4.097999    0.142475    0.002334    0.000000   -0.000000
    0.743496    3.314021    3.314021    0.114418    0.001863    0.000000   -0.000000
    0.892195    2.796877    2.796877    0.095801    0.001536    0.000000   -0.000000
    1.040894    2.435163    2.435163    0.082585    0.001317    0.000000   -0.000000
    1.189594    2.170832    2.170832    0.072748    0.001149    0.000000   -0.000000
    1.338293    1.972285    1.972285    0.065171    0.000994    0.000000   -0.000000
    1.486992    1.820026    1.820026    0.059184    0.000847    0.000000   -0.000000
    1.635691    1.703484    1.703484    0.054362    0.000779   -0.000000   -0.000000
    1.784391    1.613952    1.613952    0.050425    0.000765   -0.000000   -0.000000
    1.933090    1.543733    1.543733    0.047187    0.000849   -0.000000   -0.000000
    2.081789    1.489093    1.489093    0.044520    0.001021   -0.000000   -0.000000
    2.230488    1.450349    1.450349    0.042346    0.000874   -0.000000   -0.000000
    2.379187    1.424205    1.424205    0.040637    0.000094   -0.000000   -0.000000
    2.527887    1.410912    1.410912    0.039460   -0.000206   -0.000000   -0.000000
    2.676586    1.411415    1.411415    0.039006    0.000445   -0.000000    0.000000
    2.825285    1.421206    1.421206    0.039448    0.001720   -0.000000    0.000000
    2.973984    1.441300    1.441300    0.041433    0.001160   -0.000000    0.000000
    3.122683    1.501620    1.501620    0.047625   -0.001406   -0.000000    0.000000
    3.271383    1.574633    1.574633    0.063089    0.006995   -0.000000    0.000000
    3.420082    1.705304    1.705304    0.073191    0.001763    0.000000   -0.000000
    3.568781    1.842465    1.842465    0.078952   -0.011816    0.000000   -0.000000
    3.717480    1.895649    1.895649    0.083408   -0.005512    0.000000   -0.000000
    3.866179    2.038076    2.038076    0.074508    0.010303   -0.000000    0.000000
    4.014879    2.435437    2.435437    0.066820    0.011998   -0.000000    0.000000
    4.163578    2.371745    2.371745    0.067370    0.000400   -0.000000    0.000000
    4.312277    1.832227    1.832227    0.069500   -0.011276   -0.000000    0.000000
    4.460976    1.491408    1.491408    0.069950   -0.009212    0.000000   -0.000000
    4.609675    1.310806    1.310806    0.069467    0.003941    0.000000   -0.000000
    4.758375    1.286702    1.286702    0.068338    0.028123    0.000000   -0.000000
    4.907074    1.525873    1.525873    0.067249    0.000893   -0.000000    0.000000
    5.055773    1.755162    1.755162    0.070581   -0.040521   -0.000000    0.000000
    5.204472    1.797603    1.797603    0.070976   -0.011366    0.000000   -0.000000
    5.353172    1.742527    1.742527    0.069708    0.018066    0.000000   -0.000000
    5.501871    1.919286    1.919286    0.069755    0.025812    0.000000    0.000000
    5.650570    1.929397    1.929397    0.065331    0.000317    0.000000    0.000000
    5.799269    2.054547    2.054547    0.062956   -0.025557    0.000000    0.000000
    5.947968    2.213880    2.213880    0.063709    0.006046    0.000000   -0.000000
    6.096668    1.755628    1.755628    0.061340    0.028896    0.000000   -0.000000
    6.245367    1.404710    1.404710    0.056984    0.009148    0.000000    0.000000
    6.394066    1.165100    1.165100    0.053944   -0.006349    0.000000    0.000000
    6.542765    0.990112    0.990112    0.051823   -0.015417    0.000000   -0.000000
    6.691464    0.853728    0.853728    0.050331   -0.020224    0.000000   -0.000000
    6.840164    0.743770    0.743770    0.049308   -0.011570   -0.000000    0.000000
    6.988863    0.654357    0.654357    0.048674    0.002018   -0.000000    0.000000
    7.137562    0.580950    0.580950    0.048381    0.008330   -0.000000    0.000000
    7.286261    0.518777    0.518777    0.048399    0.009158   -0.000000    0.000000
    7.434960    0.464985    0.464985    0.048713    0.010407   -0.000000    0.000000
    7.583660    0.419112    0.419112    0.049329    0.007913    0.000000    0.000000
    7.732359    0.379473    0.379473    0.050268    0.001340    0.000000   -0.000000
    7.881058    0.344726    0.344726    0.051570   -0.008107    0.000000   -0.000000
    8.029757    0.314878    0.314878    0.053319   -0.004255    0.000000   -0.000000
    8.178457    0.290032    0.290032    0.055702    0.001947    0.000000   -0.000000
    8.327156    0.269192    0.269192    0.058778    0.002979    0.000000   -0.000000
    8.475855    0.252333    0.252333    0.062612    0.000824    0.000000   -0.000000
    8.624554    0.235980    0.235980    0.067368   -0.001102    0.000000    0.000000
    8.773253    0.220358    0.220358    0.073322   -0.001059    0.000000    0.000000
[...]
   34.944314    0.000104    0.000104    0.000067   -0.000008   -0.000000    0.000000
   35.093013    0.000101    0.000101    0.000065   -0.000008   -0.000000    0.000000
   35.241713    0.000098    0.000098    0.000064   -0.000007   -0.000000    0.000000
   35.390412    0.000096    0.000096    0.000062   -0.000007   -0.000000    0.000000
   35.539111    0.000093    0.000093    0.000060   -0.000007   -0.000000    0.000000
   35.687810    0.000091    0.000091    0.000059   -0.000007   -0.000000    0.000000
   35.836510    0.000088    0.000088    0.000057   -0.000007   -0.000000    0.000000
   35.985209    0.000086    0.000086    0.000056   -0.000007   -0.000000    0.000000
   36.133908    0.000084    0.000084    0.000054   -0.000007   -0.000000    0.000000
   36.282607    0.000082    0.000082    0.000053   -0.000007   -0.000000    0.000000
   36.431306    0.000080    0.000080    0.000052   -0.000007   -0.000000    0.000000
   36.580006    0.000078    0.000078    0.000050   -0.000007   -0.000000    0.000000
   36.728705    0.000076    0.000076    0.000049   -0.000007   -0.000000    0.000000
   36.877404    0.000074    0.000074    0.000048   -0.000006   -0.000000    0.000000
   37.026103    0.000073    0.000073    0.000047   -0.000006   -0.000000    0.000000

  frequency dependent      REAL DIELECTRIC FUNCTION (independent particle, no local field effects) current-current
     E(ev)        X           Y           Z          XY          YZ          ZX
    0.000000    2.133310    2.133310    1.420728    0.000503    0.000000   -0.000000
    0.148699    2.040035    2.040035    1.420815    0.000027    0.000000   -0.000000
    0.297398    2.112239    2.112239    1.421077   -0.000112    0.000000   -0.000000
    0.446098    2.127921    2.127921    1.421516   -0.000095    0.000000   -0.000000
    0.594797    2.140239    2.140239    1.422134   -0.000052    0.000000   -0.000000
    0.743496    2.149660    2.149660    1.422936   -0.000046    0.000000   -0.000000
    0.892195    2.156105    2.156105    1.423928   -0.000020    0.000000   -0.000000
    1.040894    2.158229    2.158229    1.425116   -0.000021    0.000000   -0.000000
    1.189594    2.158316    2.158316    1.426510   -0.000010   -0.000000   -0.000000
    1.338293    2.158720    2.158720    1.428121   -0.000023   -0.000000    0.000000
    1.486992    2.162440    2.162440    1.429966    0.000006   -0.000000    0.000000
    1.635691    2.170794    2.170794    1.432064    0.000101   -0.000000    0.000000
    1.784391    2.181615    2.181615    1.434440    0.000159   -0.000000    0.000000
    1.933090    2.192642    2.192642    1.437129    0.000196   -0.000000   -0.000000
    2.081789    2.207216    2.207216    1.440180    0.000046   -0.000000   -0.000000
    2.230488    2.222285    2.222286    1.443661   -0.000432   -0.000000   -0.000000
    2.379187    2.237724    2.237724    1.447676   -0.000476    0.000000   -0.000000
    2.527887    2.254862    2.254862    1.452379    0.000369    0.000000   -0.000000
    2.676586    2.272529    2.272529    1.457879    0.001108    0.000000   -0.000000
    2.825285    2.285466    2.285466    1.464360    0.000568   -0.000000   -0.000000
    2.973984    2.322785    2.322785    1.472415   -0.001055   -0.000000   -0.000000
    3.122683    2.341585    2.341585    1.482499    0.001246    0.000000   -0.000000
    3.271383    2.362116    2.362116    1.487961    0.001473    0.000000   -0.000000
    3.420082    2.357738    2.357738    1.480455   -0.010073    0.000000   -0.000000
    3.568781    2.283756    2.283756    1.478263   -0.002776   -0.000000   -0.000000
    3.717480    2.147918    2.147918    1.464888    0.012346   -0.000000    0.000000
    3.866179    2.214040    2.214040    1.459760    0.009327   -0.000000    0.000000
    4.014879    1.941475    1.941475    1.463674   -0.005525   -0.000000    0.000000
    4.163578    1.214145    1.214145    1.470616   -0.012301    0.000000   -0.000000
    4.312277    1.004384    1.004384    1.472821   -0.005144    0.000000   -0.000000
    4.460976    1.106723    1.106723    1.474280    0.008518    0.000000   -0.000000
    4.609675    1.299512    1.299512    1.476223    0.016424    0.000000   -0.000000
    4.758375    1.549695    1.549695    1.479113   -0.002204   -0.000000    0.000000
    4.907074    1.731305    1.731305    1.484217   -0.033658   -0.000000    0.000000
    5.055773    1.602120    1.602120    1.489175    0.000962    0.000000    0.000000
    5.204472    1.391916    1.391916    1.489314    0.017602    0.000000   -0.000000
    5.353172    1.390965    1.390965    1.494022    0.022943    0.000000    0.000000
    5.501871    1.343433    1.343433    1.496075   -0.003982    0.000000    0.000000
    5.650570    1.091035    1.091035    1.499862   -0.021822    0.000000   -0.000000
    5.799269    1.091634    1.091634    1.508243   -0.002718    0.000000   -0.000000
    5.947968    0.504835    0.504835    1.515062    0.030103    0.000000   -0.000000
    6.096668    0.161893    0.161893    1.519367   -0.002826   -0.000000    0.000000
    6.245367    0.134753    0.134753    1.527845   -0.020848   -0.000000    0.000000
    6.394066    0.175762    0.175762    1.538413   -0.017323   -0.000000    0.000000
    6.542765    0.235014    0.235014    1.550088   -0.010670   -0.000000    0.000000
    6.691464    0.298593    0.298593    1.562671    0.002797   -0.000000    0.000000
    6.840164    0.361871    0.361871    1.576152    0.015165   -0.000000    0.000000
    6.988863    0.423498    0.423498    1.590596    0.015186   -0.000000    0.000000
    7.137562    0.483611    0.483611    1.606107    0.008989   -0.000000    0.000000
    7.286261    0.540355    0.540355    1.622804    0.004979    0.000000   -0.000000
    7.434960    0.594017    0.594017    1.640831   -0.001379    0.000000   -0.000000
    7.583660    0.645594    0.645594    1.660375   -0.006460    0.000000   -0.000000
    7.732359    0.695647    0.695647    1.681657   -0.010543    0.000000   -0.000000
    7.881058    0.743810    0.743810    1.704958   -0.005260    0.000000   -0.000000
    8.029757    0.790226    0.790226    1.730620    0.004377   -0.000000    0.000000
    8.178457    0.835724    0.835724    1.758988    0.003184   -0.000000    0.000000
    8.327156    0.879262    0.879262    1.790413   -0.001026   -0.000000    0.000000
    8.475855    0.919634    0.919634    1.825517   -0.002469   -0.000000    0.000000
    8.624554    0.957245    0.957245    1.865123   -0.002018   -0.000000    0.000000
    8.773253    0.995276    0.995276    1.910306   -0.000962   -0.000000    0.000000
[...]
   34.944314    0.901202    0.901202    0.939217    0.000000   -0.000000    0.000000
   35.093013    0.902189    0.902189    0.939830    0.000000   -0.000000    0.000000
   35.241713    0.903159    0.903159    0.940432    0.000000   -0.000000    0.000000
   35.390412    0.904115    0.904115    0.941024    0.000000   -0.000000    0.000000
   35.539111    0.905056    0.905056    0.941607    0.000000   -0.000000    0.000000
   35.687810    0.905981    0.905981    0.942181    0.000000   -0.000000    0.000000
   35.836510    0.906893    0.906893    0.942746    0.000000   -0.000000    0.000000
   35.985209    0.907790    0.907790    0.943302    0.000000   -0.000000    0.000000
   36.133908    0.908673    0.908673    0.943849    0.000000   -0.000000    0.000000
   36.282607    0.909543    0.909543    0.944388    0.000000   -0.000000    0.000000
   36.431306    0.910400    0.910400    0.944919    0.000000   -0.000000    0.000000
   36.580006    0.911244    0.911244    0.945441    0.000000   -0.000000    0.000000
   36.728705    0.912076    0.912076    0.945956    0.000000   -0.000000    0.000000
   36.877404    0.912895    0.912895    0.946463    0.000000   -0.000000    0.000000
   37.026103    0.913702    0.913702    0.946962    0.000000   -0.000000    0.000000

 The outermost node in the dielectric function lies at epsilon=  16.6